p sp 2625 2443
e 1 2 1
e 1 3 1
e 1 4 1
e 1 5 1
e 1 6 1
e 7 8 1
e 7 9 1
e 10 11 1
e 10 12 1
e 11 2048 1
e 11 2049 1
e 11 2050 1
e 11 2051 1
e 11 2052 1
e 11 2053 1
e 11 2054 1
e 11 2055 1
e 11 2056 1
e 11 2057 1
e 11 2059 1
e 11 12 1
e 11 2061 1
e 11 2062 1
e 11 2063 1
e 11 2064 1
e 11 2065 1
e 11 2066 1
e 11 2067 1
e 11 2068 1
e 11 2069 1
e 11 2070 1
e 11 2071 1
e 11 2072 1
e 11 2073 1
e 11 2074 1
e 11 2075 1
e 11 2076 1
e 11 2077 1
e 11 2078 1
e 11 2079 1
e 11 2080 1
e 11 2081 1
e 11 2082 1
e 11 2083 1
e 11 2084 1
e 11 2085 1
e 11 2086 1
e 11 2087 1
e 11 2088 1
e 11 2089 1
e 11 42 1
e 11 2091 1
e 11 44 1
e 11 2093 1
e 11 2094 1
e 11 2095 1
e 11 2096 1
e 11 2097 1
e 11 2098 1
e 11 2099 1
e 11 2100 1
e 11 2101 1
e 11 2102 1
e 11 2103 1
e 11 2104 1
e 11 2105 1
e 11 2106 1
e 11 2107 1
e 11 2108 1
e 11 2058 1
e 11 2110 1
e 11 2111 1
e 11 2112 1
e 11 2113 1
e 11 2114 1
e 11 2115 1
e 11 2116 1
e 11 2117 1
e 11 2118 1
e 11 2119 1
e 11 2120 1
e 11 2060 1
e 11 2122 1
e 11 2123 1
e 11 2124 1
e 11 2125 1
e 11 2126 1
e 11 2127 1
e 11 2128 1
e 11 2129 1
e 11 2130 1
e 11 2131 1
e 11 2132 1
e 11 2133 1
e 11 2134 1
e 11 2135 1
e 11 2136 1
e 11 2137 1
e 11 2138 1
e 11 2139 1
e 11 2140 1
e 11 2141 1
e 11 2142 1
e 11 2143 1
e 11 2144 1
e 11 2145 1
e 11 2146 1
e 11 2147 1
e 11 2148 1
e 11 2149 1
e 11 2150 1
e 11 2151 1
e 11 2152 1
e 11 2153 1
e 11 2154 1
e 11 2155 1
e 11 2156 1
e 11 2157 1
e 11 2158 1
e 11 2159 1
e 11 2160 1
e 11 2161 1
e 11 2162 1
e 11 2163 1
e 11 2164 1
e 11 2165 1
e 11 2166 1
e 11 2167 1
e 11 2168 1
e 11 2169 1
e 11 2170 1
e 11 2171 1
e 11 2172 1
e 11 2173 1
e 11 2174 1
e 11 2175 1
e 11 2176 1
e 11 2177 1
e 11 2178 1
e 11 2179 1
e 11 2180 1
e 11 2181 1
e 11 2182 1
e 11 2183 1
e 11 2184 1
e 11 2185 1
e 11 2186 1
e 11 2187 1
e 11 2188 1
e 11 2189 1
e 11 2190 1
e 11 2191 1
e 11 2192 1
e 11 2193 1
e 11 2194 1
e 11 2195 1
e 11 2196 1
e 11 2197 1
e 11 2198 1
e 11 2199 1
e 11 2200 1
e 11 2201 1
e 11 2202 1
e 11 2203 1
e 11 2204 1
e 11 2205 1
e 11 2206 1
e 11 2207 1
e 11 2208 1
e 11 2209 1
e 11 2210 1
e 11 2211 1
e 11 2212 1
e 11 2213 1
e 11 2214 1
e 11 2215 1
e 11 2216 1
e 11 2217 1
e 11 2218 1
e 11 2219 1
e 11 2220 1
e 11 2221 1
e 11 2222 1
e 11 2223 1
e 11 2224 1
e 11 2225 1
e 11 2226 1
e 11 2227 1
e 11 2228 1
e 11 2229 1
e 11 2230 1
e 11 2231 1
e 11 2232 1
e 11 2233 1
e 11 2234 1
e 11 2235 1
e 11 2236 1
e 11 2237 1
e 11 2238 1
e 11 2239 1
e 11 2240 1
e 11 2241 1
e 11 2242 1
e 11 2243 1
e 11 2244 1
e 11 2245 1
e 11 2246 1
e 11 2247 1
e 11 2248 1
e 11 2249 1
e 11 2250 1
e 11 2251 1
e 11 2252 1
e 11 2253 1
e 11 2254 1
e 11 2255 1
e 11 2256 1
e 11 2257 1
e 11 2258 1
e 11 2259 1
e 11 212 1
e 11 2261 1
e 11 214 1
e 11 2263 1
e 11 2264 1
e 11 2265 1
e 11 2266 1
e 11 2267 1
e 11 2268 1
e 11 2269 1
e 11 2270 1
e 11 2271 1
e 11 2272 1
e 11 2273 1
e 11 2274 1
e 11 2275 1
e 11 2276 1
e 11 2277 1
e 11 2278 1
e 11 2279 1
e 11 232 1
e 11 2281 1
e 11 234 1
e 11 2283 1
e 11 2284 1
e 11 2285 1
e 11 2286 1
e 11 2287 1
e 11 2288 1
e 11 2289 1
e 11 2290 1
e 11 2291 1
e 11 2292 1
e 11 2293 1
e 11 2294 1
e 11 2295 1
e 11 2296 1
e 11 2297 1
e 11 2298 1
e 11 2299 1
e 11 2300 1
e 11 253 1
e 11 254 1
e 11 2303 1
e 11 2304 1
e 11 2305 1
e 11 2306 1
e 11 2307 1
e 11 2308 1
e 11 2309 1
e 11 2310 1
e 11 2311 1
e 11 2312 1
e 11 2092 1
e 11 2314 1
e 11 2315 1
e 11 2316 1
e 11 2317 1
e 11 2318 1
e 11 2319 1
e 11 2320 1
e 11 2321 1
e 11 2322 1
e 11 2323 1
e 11 2324 1
e 11 46 1
e 11 2326 1
e 11 2327 1
e 11 2328 1
e 11 2329 1
e 11 2330 1
e 11 2331 1
e 11 2332 1
e 11 2109 1
e 11 417 1
e 11 419 1
e 11 438 1
e 11 2121 1
e 11 447 1
e 11 450 1
e 11 452 1
e 11 455 1
e 11 532 1
e 11 548 1
e 11 558 1
e 11 559 1
e 11 621 1
e 11 623 1
e 11 850 1
e 11 851 1
e 11 931 1
e 11 934 1
e 11 935 1
e 11 936 1
e 11 1011 1
e 11 1098 1
e 11 1167 1
e 11 2260 1
e 11 2262 1
e 11 1293 1
e 11 1294 1
e 11 1295 1
e 11 1297 1
e 11 2090 1
e 11 1359 1
e 11 2280 1
e 11 1395 1
e 11 2282 1
e 11 2301 1
e 11 2302 1
e 11 2313 1
e 11 2325 1
e 11 1702 1
e 11 1710 1
e 11 1735 1
e 11 1772 1
e 11 1848 1
e 11 1849 1
e 11 1850 1
e 11 1851 1
e 11 1852 1
e 11 1853 1
e 11 1854 1
e 11 1855 1
e 11 1856 1
e 11 1857 1
e 11 1858 1
e 11 1859 1
e 11 1860 1
e 11 1861 1
e 11 1862 1
e 11 1863 1
e 11 1864 1
e 11 1865 1
e 11 1866 1
e 11 1867 1
e 11 1868 1
e 11 1869 1
e 11 1870 1
e 11 1871 1
e 11 1872 1
e 11 1873 1
e 11 1874 1
e 11 1875 1
e 11 1876 1
e 11 1877 1
e 11 1878 1
e 11 1879 1
e 11 1880 1
e 11 1881 1
e 11 1882 1
e 11 1883 1
e 11 1884 1
e 11 1885 1
e 11 1886 1
e 11 1887 1
e 11 1888 1
e 11 1889 1
e 11 1890 1
e 11 1891 1
e 11 1892 1
e 11 1893 1
e 11 1894 1
e 11 1895 1
e 11 1896 1
e 11 1897 1
e 11 1898 1
e 11 1899 1
e 11 1900 1
e 11 1901 1
e 11 1902 1
e 11 1903 1
e 11 1904 1
e 11 1905 1
e 11 1906 1
e 11 1907 1
e 11 1908 1
e 11 1909 1
e 11 1910 1
e 11 1911 1
e 11 1912 1
e 11 1913 1
e 11 1914 1
e 11 1915 1
e 11 1916 1
e 11 1917 1
e 11 1918 1
e 11 1919 1
e 11 1920 1
e 11 1921 1
e 11 1922 1
e 11 1923 1
e 11 1924 1
e 11 1925 1
e 11 1926 1
e 11 1927 1
e 11 1928 1
e 11 1929 1
e 11 1930 1
e 11 1931 1
e 11 1932 1
e 11 1933 1
e 11 1934 1
e 11 1935 1
e 11 1936 1
e 11 1937 1
e 11 1938 1
e 11 1939 1
e 11 1940 1
e 11 1941 1
e 11 1942 1
e 11 1943 1
e 11 1944 1
e 11 1945 1
e 11 1946 1
e 11 1947 1
e 11 1948 1
e 11 1949 1
e 11 1950 1
e 11 1951 1
e 11 1952 1
e 11 1953 1
e 11 1954 1
e 11 1955 1
e 11 1956 1
e 11 1957 1
e 11 1958 1
e 11 1959 1
e 11 1960 1
e 11 1961 1
e 11 1962 1
e 11 1963 1
e 11 1964 1
e 11 1965 1
e 11 1966 1
e 11 1967 1
e 11 1968 1
e 11 1969 1
e 11 1970 1
e 11 1971 1
e 11 1972 1
e 11 1973 1
e 11 1974 1
e 11 1975 1
e 11 1976 1
e 11 1977 1
e 11 1978 1
e 11 1979 1
e 11 1980 1
e 11 1981 1
e 11 1982 1
e 11 1983 1
e 11 1984 1
e 11 1985 1
e 11 1986 1
e 11 1987 1
e 11 1988 1
e 11 1989 1
e 11 1990 1
e 11 1991 1
e 11 1992 1
e 11 1993 1
e 11 1994 1
e 11 1995 1
e 11 1996 1
e 11 1997 1
e 11 1998 1
e 11 1999 1
e 11 2000 1
e 11 2001 1
e 11 2002 1
e 11 2003 1
e 11 2004 1
e 11 2005 1
e 11 2006 1
e 11 2007 1
e 11 2008 1
e 11 2009 1
e 11 2010 1
e 11 2011 1
e 11 2012 1
e 11 2013 1
e 11 2014 1
e 11 2015 1
e 11 2016 1
e 11 2017 1
e 11 2018 1
e 11 2019 1
e 11 2020 1
e 11 2021 1
e 11 2022 1
e 11 2023 1
e 11 2024 1
e 11 2025 1
e 11 2026 1
e 11 2027 1
e 11 2028 1
e 11 2029 1
e 11 2030 1
e 11 2031 1
e 11 2032 1
e 11 2033 1
e 11 2034 1
e 11 2035 1
e 11 2036 1
e 11 2037 1
e 11 2038 1
e 11 2039 1
e 11 2040 1
e 11 2041 1
e 11 2042 1
e 11 2043 1
e 11 2044 1
e 11 2045 1
e 11 2046 1
e 11 2047 1
e 12 163 1
e 12 164 1
e 12 165 1
e 12 166 1
e 12 167 1
e 12 168 1
e 12 169 1
e 12 172 1
e 12 173 1
e 12 171 1
e 12 170 1
e 13 14 1
e 13 15 1
e 15 16 1
e 17 18 1
e 17 19 1
e 17 20 1
e 17 21 1
e 17 22 1
e 17 23 1
e 19 20 1
e 19 22 1
e 20 24 1
e 24 25 1
e 26 32 1
e 26 33 1
e 26 34 1
e 26 35 1
e 26 36 1
e 26 27 1
e 26 28 1
e 26 29 1
e 26 30 1
e 26 31 1
e 37 38 1
e 37 39 1
e 38 40 1
e 39 41 1
e 42 43 1
e 44 45 1
e 46 48 1
e 46 49 1
e 46 50 1
e 46 47 1
e 51 52 1
e 51 53 1
e 51 54 1
e 51 55 1
e 51 56 1
e 51 57 1
e 51 58 1
e 51 59 1
e 51 60 1
e 61 64 1
e 61 65 1
e 61 62 1
e 61 63 1
e 63 66 1
e 67 68 1
e 67 69 1
e 67 70 1
e 67 71 1
e 67 72 1
e 67 73 1
e 67 74 1
e 67 75 1
e 67 76 1
e 67 77 1
e 67 78 1
e 79 80 1
e 79 81 1
e 82 83 1
e 82 84 1
e 82 85 1
e 82 86 1
e 82 87 1
e 82 88 1
e 86 89 1
e 86 90 1
e 91 96 1
e 91 92 1
e 91 93 1
e 91 94 1
e 91 95 1
e 92 97 1
e 92 94 1
e 98 99 1
e 98 100 1
e 98 101 1
e 98 102 1
e 98 103 1
e 98 104 1
e 98 105 1
e 98 106 1
e 98 107 1
e 98 108 1
e 98 109 1
e 98 110 1
e 111 128 1
e 111 129 1
e 111 130 1
e 111 131 1
e 111 132 1
e 111 133 1
e 111 134 1
e 111 135 1
e 111 136 1
e 111 112 1
e 111 113 1
e 111 114 1
e 111 115 1
e 111 116 1
e 111 117 1
e 111 118 1
e 111 119 1
e 111 120 1
e 111 121 1
e 111 122 1
e 111 123 1
e 111 124 1
e 111 125 1
e 111 126 1
e 111 127 1
e 137 138 1
e 137 139 1
e 140 141 1
e 140 142 1
e 143 144 1
e 143 145 1
e 143 146 1
e 144 145 1
e 144 146 1
e 145 146 1
e 147 152 1
e 147 148 1
e 147 149 1
e 147 150 1
e 147 151 1
e 150 152 1
e 151 152 1
e 153 154 1
e 153 155 1
e 153 156 1
e 153 157 1
e 158 160 1
e 158 161 1
e 158 162 1
e 158 159 1
e 164 174 1
e 165 166 1
e 174 192 1
e 174 175 1
e 174 176 1
e 174 177 1
e 174 178 1
e 174 179 1
e 174 180 1
e 174 181 1
e 174 182 1
e 174 183 1
e 174 184 1
e 174 185 1
e 174 186 1
e 174 187 1
e 174 188 1
e 174 189 1
e 174 190 1
e 174 191 1
e 193 194 1
e 193 195 1
e 193 196 1
e 193 197 1
e 193 198 1
e 193 199 1
e 193 200 1
e 193 201 1
e 193 202 1
e 193 203 1
e 193 204 1
e 193 205 1
e 193 206 1
e 193 207 1
e 193 208 1
e 193 209 1
e 194 195 1
e 194 198 1
e 194 199 1
e 194 210 1
e 194 211 1
e 194 212 1
e 194 213 1
e 194 214 1
e 194 215 1
e 194 216 1
e 194 217 1
e 196 200 1
e 196 218 1
e 200 219 1
e 200 220 1
e 210 217 1
e 210 213 1
e 211 217 1
e 212 224 1
e 212 225 1
e 212 214 1
e 212 221 1
e 213 217 1
e 214 215 1
e 214 217 1
e 214 221 1
e 214 222 1
e 214 223 1
e 221 224 1
e 224 226 1
e 227 228 1
e 227 229 1
e 227 230 1
e 227 231 1
e 232 233 1
e 234 236 1
e 234 235 1
e 237 238 1
e 237 239 1
e 237 240 1
e 237 241 1
e 237 242 1
e 237 243 1
e 237 244 1
e 237 245 1
e 238 249 1
e 238 250 1
e 238 251 1
e 238 252 1
e 240 245 1
e 242 245 1
e 243 245 1
e 244 246 1
e 245 247 1
e 245 248 1
e 245 249 1
e 253 254 1
e 254 256 1
e 254 257 1
e 254 258 1
e 254 255 1
e 259 260 1
e 259 261 1
e 262 264 1
e 262 265 1
e 262 266 1
e 262 263 1
e 267 268 1
e 267 269 1
e 270 271 1
e 270 272 1
e 270 273 1
e 270 274 1
e 270 275 1
e 270 276 1
e 270 277 1
e 270 278 1
e 270 279 1
e 270 280 1
e 281 282 1
e 281 283 1
e 281 284 1
e 285 288 1
e 285 289 1
e 285 290 1
e 285 291 1
e 285 292 1
e 285 293 1
e 285 294 1
e 285 286 1
e 285 287 1
e 295 296 1
e 295 297 1
e 295 298 1
e 295 299 1
e 295 300 1
e 295 301 1
e 295 302 1
e 295 303 1
e 295 304 1
e 295 305 1
e 295 306 1
e 295 307 1
e 295 308 1
e 309 312 1
e 309 313 1
e 309 310 1
e 309 311 1
e 311 314 1
e 312 313 1
e 312 314 1
e 312 315 1
e 312 316 1
e 313 314 1
e 314 320 1
e 314 321 1
e 314 317 1
e 314 318 1
e 314 319 1
e 317 320 1
e 317 323 1
e 317 322 1
e 317 319 1
e 318 324 1
e 319 320 1
e 322 325 1
e 326 328 1
e 326 327 1
e 329 330 1
e 329 331 1
e 329 332 1
e 329 333 1
e 334 335 1
e 334 336 1
e 334 337 1
e 334 338 1
e 334 339 1
e 334 340 1
e 334 341 1
e 334 342 1
e 335 344 1
e 335 345 1
e 335 343 1
e 346 347 1
e 346 348 1
e 346 349 1
e 347 349 1
e 347 350 1
e 351 352 1
e 351 353 1
e 351 354 1
e 351 355 1
e 356 357 1
e 356 358 1
e 357 360 1
e 357 359 1
e 361 362 1
e 361 363 1
e 361 364 1
e 361 365 1
e 361 366 1
e 361 367 1
e 361 368 1
e 361 369 1
e 361 370 1
e 361 371 1
e 361 372 1
e 373 374 1
e 373 375 1
e 373 376 1
e 373 377 1
e 373 378 1
e 373 379 1
e 380 384 1
e 380 385 1
e 380 386 1
e 380 387 1
e 380 388 1
e 380 381 1
e 380 382 1
e 380 383 1
e 389 390 1
e 389 391 1
e 389 392 1
e 389 393 1
e 389 394 1
e 389 395 1
e 389 396 1
e 389 397 1
e 389 398 1
e 389 399 1
e 389 400 1
e 389 401 1
e 389 402 1
e 389 403 1
e 389 404 1
e 389 405 1
e 389 406 1
e 389 407 1
e 391 408 1
e 391 404 1
e 401 404 1
e 403 408 1
e 403 409 1
e 403 404 1
e 403 405 1
e 404 406 1
e 404 407 1
e 405 407 1
e 407 408 1
e 408 410 1
e 409 482 1
e 411 412 1
e 411 413 1
e 414 416 1
e 414 415 1
e 417 418 1
e 419 420 1
e 419 421 1
e 419 422 1
e 423 424 1
e 423 425 1
e 426 427 1
e 426 428 1
e 429 430 1
e 429 431 1
e 432 433 1
e 432 434 1
e 435 436 1
e 435 437 1
e 438 439 1
e 438 440 1
e 438 441 1
e 438 442 1
e 438 443 1
e 438 444 1
e 438 445 1
e 438 446 1
e 447 448 1
e 447 449 1
e 450 451 1
e 451 848 1
e 451 849 1
e 452 453 1
e 452 454 1
e 455 456 1
e 457 458 1
e 457 459 1
e 457 460 1
e 461 462 1
e 461 463 1
e 463 464 1
e 465 466 1
e 465 467 1
e 465 468 1
e 469 472 1
e 469 473 1
e 469 470 1
e 469 471 1
e 470 472 1
e 470 474 1
e 475 476 1
e 475 477 1
e 476 477 1
e 478 480 1
e 478 481 1
e 478 479 1
e 483 484 1
e 483 485 1
e 483 486 1
e 483 487 1
e 483 488 1
e 483 489 1
e 483 490 1
e 483 491 1
e 492 496 1
e 492 493 1
e 492 494 1
e 492 495 1
e 497 512 1
e 497 513 1
e 497 514 1
e 497 515 1
e 497 516 1
e 497 498 1
e 497 499 1
e 497 500 1
e 497 501 1
e 497 502 1
e 497 503 1
e 497 504 1
e 497 505 1
e 497 506 1
e 497 507 1
e 497 508 1
e 497 509 1
e 497 510 1
e 497 511 1
e 499 517 1
e 499 518 1
e 499 519 1
e 499 520 1
e 499 521 1
e 499 522 1
e 499 523 1
e 499 524 1
e 499 525 1
e 499 500 1
e 499 503 1
e 500 517 1
e 517 531 1
e 517 518 1
e 517 519 1
e 526 528 1
e 526 527 1
e 528 529 1
e 528 530 1
e 532 533 1
e 533 1034 1
e 533 1035 1
e 534 544 1
e 534 545 1
e 534 546 1
e 534 535 1
e 534 536 1
e 534 537 1
e 534 538 1
e 534 539 1
e 534 540 1
e 534 541 1
e 534 542 1
e 534 543 1
e 535 536 1
e 536 537 1
e 547 548 1
e 547 549 1
e 547 550 1
e 551 552 1
e 551 553 1
e 551 554 1
e 553 554 1
e 553 555 1
e 554 556 1
e 554 557 1
e 556 620 1
e 557 1050 1
e 558 559 1
e 560 561 1
e 560 562 1
e 560 563 1
e 564 565 1
e 564 566 1
e 564 567 1
e 564 568 1
e 564 569 1
e 564 570 1
e 564 571 1
e 566 572 1
e 566 573 1
e 567 574 1
e 567 575 1
e 572 646 1
e 576 577 1
e 576 578 1
e 579 580 1
e 579 581 1
e 579 582 1
e 579 583 1
e 579 584 1
e 579 585 1
e 586 587 1
e 586 588 1
e 586 589 1
e 586 590 1
e 586 591 1
e 586 592 1
e 586 593 1
e 586 594 1
e 586 595 1
e 586 596 1
e 586 597 1
e 586 598 1
e 586 599 1
e 586 600 1
e 586 601 1
e 586 602 1
e 603 608 1
e 603 609 1
e 603 610 1
e 603 604 1
e 603 605 1
e 603 606 1
e 603 607 1
e 611 612 1
e 611 613 1
e 614 616 1
e 614 617 1
e 614 618 1
e 614 619 1
e 614 615 1
e 621 622 1
e 623 624 1
e 624 1260 1
e 625 626 1
e 625 627 1
e 628 629 1
e 628 630 1
e 631 632 1
e 631 633 1
e 634 635 1
e 634 636 1
e 634 637 1
e 636 640 1
e 636 638 1
e 636 639 1
e 641 642 1
e 641 643 1
e 641 644 1
e 644 645 1
e 647 648 1
e 647 649 1
e 647 650 1
e 647 651 1
e 647 652 1
e 647 653 1
e 654 656 1
e 654 657 1
e 654 658 1
e 654 659 1
e 654 655 1
e 660 672 1
e 660 673 1
e 660 674 1
e 660 675 1
e 660 676 1
e 660 677 1
e 660 678 1
e 660 661 1
e 660 662 1
e 660 663 1
e 660 664 1
e 660 665 1
e 660 666 1
e 660 667 1
e 660 668 1
e 660 669 1
e 660 670 1
e 660 671 1
e 679 680 1
e 679 681 1
e 679 682 1
e 679 683 1
e 679 684 1
e 679 685 1
e 679 686 1
e 679 687 1
e 688 689 1
e 688 690 1
e 688 691 1
e 692 693 1
e 692 694 1
e 692 695 1
e 692 696 1
e 692 697 1
e 692 698 1
e 692 699 1
e 692 700 1
e 692 701 1
e 693 694 1
e 693 695 1
e 693 696 1
e 693 697 1
e 693 698 1
e 693 699 1
e 694 698 1
e 694 695 1
e 697 698 1
e 697 699 1
e 697 702 1
e 698 704 1
e 698 705 1
e 698 706 1
e 698 707 1
e 698 700 1
e 698 703 1
e 706 1302 1
e 708 709 1
e 708 710 1
e 708 711 1
e 709 712 1
e 710 713 1
e 714 715 1
e 714 716 1
e 714 717 1
e 714 718 1
e 714 719 1
e 720 721 1
e 720 722 1
e 723 724 1
e 723 725 1
e 726 728 1
e 726 727 1
e 729 730 1
e 729 731 1
e 729 732 1
e 733 736 1
e 733 737 1
e 733 738 1
e 733 739 1
e 733 740 1
e 733 741 1
e 733 734 1
e 733 735 1
e 742 744 1
e 742 745 1
e 742 746 1
e 742 743 1
e 747 748 1
e 747 749 1
e 747 750 1
e 747 751 1
e 747 752 1
e 747 753 1
e 747 754 1
e 747 755 1
e 747 756 1
e 757 760 1
e 757 761 1
e 757 758 1
e 757 759 1
e 758 761 1
e 762 768 1
e 762 763 1
e 762 764 1
e 762 765 1
e 762 766 1
e 762 767 1
e 769 770 1
e 769 771 1
e 769 772 1
e 769 773 1
e 769 774 1
e 775 776 1
e 775 777 1
e 775 778 1
e 775 779 1
e 780 781 1
e 780 782 1
e 780 783 1
e 780 784 1
e 780 785 1
e 780 786 1
e 780 787 1
e 788 800 1
e 788 801 1
e 788 789 1
e 788 790 1
e 788 791 1
e 788 792 1
e 788 793 1
e 788 794 1
e 788 795 1
e 788 796 1
e 788 797 1
e 788 798 1
e 788 799 1
e 802 803 1
e 802 804 1
e 802 805 1
e 802 806 1
e 807 808 1
e 807 809 1
e 807 810 1
e 811 812 1
e 811 813 1
e 811 814 1
e 811 815 1
e 811 816 1
e 811 817 1
e 811 818 1
e 819 820 1
e 819 821 1
e 822 832 1
e 822 833 1
e 822 834 1
e 822 823 1
e 822 824 1
e 822 825 1
e 822 826 1
e 822 827 1
e 822 828 1
e 822 829 1
e 822 830 1
e 822 831 1
e 835 836 1
e 835 837 1
e 835 838 1
e 839 840 1
e 839 841 1
e 839 842 1
e 843 844 1
e 843 845 1
e 843 846 1
e 843 847 1
e 850 851 1
e 852 853 1
e 852 854 1
e 852 855 1
e 852 856 1
e 852 857 1
e 852 858 1
e 852 859 1
e 852 860 1
e 852 861 1
e 853 862 1
e 855 859 1
e 857 863 1
e 864 865 1
e 864 866 1
e 864 867 1
e 864 868 1
e 869 870 1
e 869 871 1
e 869 872 1
e 869 873 1
e 869 874 1
e 869 875 1
e 869 876 1
e 869 877 1
e 870 875 1
e 870 876 1
e 870 878 1
e 870 879 1
e 870 880 1
e 871 872 1
e 872 873 1
e 872 874 1
e 872 877 1
e 872 881 1
e 872 882 1
e 872 883 1
e 872 884 1
e 872 885 1
e 872 886 1
e 872 887 1
e 873 888 1
e 873 881 1
e 889 890 1
e 889 891 1
e 889 892 1
e 889 893 1
e 889 894 1
e 895 896 1
e 895 897 1
e 898 899 1
e 898 900 1
e 901 904 1
e 901 902 1
e 901 903 1
e 905 906 1
e 905 907 1
e 908 909 1
e 908 910 1
e 909 910 1
e 911 912 1
e 911 913 1
e 914 915 1
e 914 916 1
e 914 917 1
e 915 917 1
e 918 920 1
e 918 921 1
e 918 919 1
e 921 922 1
e 921 923 1
e 921 924 1
e 925 926 1
e 925 927 1
e 928 929 1
e 928 930 1
e 931 932 1
e 931 933 1
e 934 939 1
e 934 935 1
e 934 936 1
e 934 937 1
e 934 938 1
e 934 940 1
e 934 941 1
e 934 942 1
e 934 943 1
e 934 944 1
e 934 945 1
e 934 946 1
e 934 947 1
e 934 948 1
e 949 950 1
e 949 951 1
e 952 953 1
e 952 954 1
e 955 956 1
e 955 957 1
e 955 958 1
e 959 960 1
e 959 961 1
e 959 962 1
e 959 963 1
e 959 964 1
e 959 965 1
e 959 966 1
e 959 967 1
e 961 968 1
e 963 969 1
e 963 970 1
e 963 971 1
e 963 972 1
e 963 973 1
e 963 974 1
e 963 975 1
e 963 976 1
e 963 977 1
e 963 978 1
e 963 979 1
e 963 980 1
e 963 981 1
e 963 982 1
e 963 983 1
e 963 984 1
e 963 985 1
e 963 986 1
e 963 987 1
e 963 988 1
e 963 989 1
e 963 990 1
e 963 991 1
e 963 992 1
e 963 993 1
e 963 994 1
e 963 995 1
e 963 996 1
e 963 997 1
e 963 998 1
e 963 999 1
e 963 1000 1
e 963 1001 1
e 963 1002 1
e 963 1003 1
e 963 1004 1
e 963 1005 1
e 963 1006 1
e 963 1007 1
e 1008 1009 1
e 1008 1010 1
e 1011 1012 1
e 1012 1016 1
e 1013 1014 1
e 1013 1015 1
e 1017 1024 1
e 1017 1025 1
e 1017 1018 1
e 1017 1019 1
e 1017 1020 1
e 1017 1021 1
e 1017 1022 1
e 1017 1023 1
e 1026 1027 1
e 1026 1028 1
e 1029 1032 1
e 1029 1033 1
e 1029 1030 1
e 1029 1031 1
e 1034 1080 1
e 1034 1079 1
e 1036 1037 1
e 1036 1038 1
e 1036 1039 1
e 1036 1040 1
e 1036 1041 1
e 1036 1042 1
e 1036 1043 1
e 1036 1044 1
e 1036 1045 1
e 1036 1046 1
e 1047 1048 1
e 1047 1049 1
e 1051 1052 1
e 1051 1053 1
e 1052 1054 1
e 1055 1056 1
e 1055 1057 1
e 1055 1058 1
e 1059 1064 1
e 1059 1060 1
e 1059 1061 1
e 1059 1062 1
e 1059 1063 1
e 1061 1065 1
e 1066 1067 1
e 1066 1068 1
e 1066 1069 1
e 1067 1068 1
e 1067 1069 1
e 1067 1070 1
e 1067 1071 1
e 1067 1072 1
e 1073 1074 1
e 1073 1075 1
e 1073 1076 1
e 1073 1077 1
e 1073 1078 1
e 1081 1082 1
e 1081 1083 1
e 1084 1088 1
e 1084 1089 1
e 1084 1090 1
e 1084 1091 1
e 1084 1092 1
e 1084 1093 1
e 1084 1094 1
e 1084 1095 1
e 1084 1096 1
e 1084 1097 1
e 1084 1085 1
e 1084 1086 1
e 1084 1087 1
e 1092 1093 1
e 1093 1100 1
e 1093 1098 1
e 1093 1099 1
e 1094 1101 1
e 1095 1104 1
e 1095 1102 1
e 1095 1103 1
e 1096 1105 1
e 1096 1097 1
e 1097 1106 1
e 1098 1201 1
e 1098 1202 1
e 1098 1203 1
e 1098 1204 1
e 1099 1205 1
e 1107 1108 1
e 1107 1109 1
e 1107 1110 1
e 1107 1111 1
e 1107 1112 1
e 1107 1113 1
e 1112 1114 1
e 1114 1120 1
e 1114 1121 1
e 1114 1122 1
e 1114 1123 1
e 1114 1124 1
e 1114 1125 1
e 1114 1126 1
e 1114 1127 1
e 1114 1128 1
e 1114 1129 1
e 1114 1130 1
e 1114 1131 1
e 1114 1132 1
e 1114 1133 1
e 1114 1134 1
e 1114 1115 1
e 1114 1116 1
e 1114 1117 1
e 1114 1118 1
e 1114 1119 1
e 1135 1136 1
e 1135 1137 1
e 1135 1138 1
e 1135 1139 1
e 1135 1140 1
e 1139 1141 1
e 1139 1142 1
e 1143 1144 1
e 1143 1145 1
e 1146 1147 1
e 1146 1148 1
e 1149 1152 1
e 1149 1153 1
e 1149 1150 1
e 1149 1151 1
e 1154 1155 1
e 1154 1156 1
e 1155 1157 1
e 1155 1158 1
e 1157 1220 1
e 1158 1200 1
e 1158 1197 1
e 1158 1198 1
e 1158 1199 1
e 1159 1160 1
e 1159 1161 1
e 1159 1162 1
e 1159 1163 1
e 1164 1165 1
e 1164 1166 1
e 1167 1168 1
e 1167 1169 1
e 1170 1184 1
e 1170 1185 1
e 1170 1186 1
e 1170 1171 1
e 1170 1172 1
e 1170 1173 1
e 1170 1174 1
e 1170 1175 1
e 1170 1176 1
e 1170 1177 1
e 1170 1178 1
e 1170 1179 1
e 1170 1180 1
e 1170 1181 1
e 1170 1182 1
e 1170 1183 1
e 1187 1188 1
e 1187 1189 1
e 1187 1190 1
e 1187 1191 1
e 1188 1191 1
e 1188 1192 1
e 1188 1193 1
e 1188 1194 1
e 1188 1195 1
e 1188 1196 1
e 1206 1208 1
e 1206 1209 1
e 1206 1210 1
e 1206 1207 1
e 1211 1212 1
e 1211 1213 1
e 1214 1216 1
e 1214 1215 1
e 1217 1218 1
e 1217 1219 1
e 1221 1222 1
e 1221 1223 1
e 1224 1225 1
e 1224 1226 1
e 1224 1227 1
e 1224 1228 1
e 1224 1229 1
e 1224 1230 1
e 1225 1230 1
e 1230 1231 1
e 1230 1232 1
e 1230 1233 1
e 1230 1234 1
e 1230 1235 1
e 1230 1236 1
e 1237 1238 1
e 1237 1239 1
e 1240 1241 1
e 1240 1242 1
e 1240 1243 1
e 1240 1244 1
e 1240 1245 1
e 1240 1246 1
e 1247 1248 1
e 1247 1249 1
e 1247 1250 1
e 1247 1251 1
e 1247 1252 1
e 1249 1253 1
e 1254 1256 1
e 1254 1255 1
e 1257 1258 1
e 1257 1259 1
e 1261 1262 1
e 1261 1263 1
e 1264 1265 1
e 1264 1266 1
e 1267 1268 1
e 1267 1269 1
e 1267 1270 1
e 1267 1271 1
e 1267 1272 1
e 1267 1273 1
e 1274 1275 1
e 1274 1276 1
e 1277 1280 1
e 1277 1281 1
e 1277 1282 1
e 1277 1283 1
e 1277 1278 1
e 1277 1279 1
e 1284 1285 1
e 1284 1286 1
e 1284 1287 1
e 1288 1289 1
e 1288 1290 1
e 1288 1291 1
e 1288 1292 1
e 1293 1294 1
e 1293 1295 1
e 1294 1295 1
e 1295 1296 1
e 1295 1297 1
e 1298 1299 1
e 1298 1300 1
e 1298 1301 1
e 1303 1304 1
e 1303 1305 1
e 1303 1306 1
e 1307 1308 1
e 1307 1309 1
e 1307 1310 1
e 1307 1311 1
e 1309 1312 1
e 1309 1313 1
e 1310 1315 1
e 1310 1314 1
e 1310 1311 1
e 1316 1317 1
e 1316 1318 1
e 1316 1319 1
e 1320 1321 1
e 1320 1322 1
e 1320 1323 1
e 1320 1324 1
e 1320 1325 1
e 1320 1326 1
e 1320 1327 1
e 1328 1329 1
e 1328 1330 1
e 1328 1331 1
e 1328 1332 1
e 1328 1333 1
e 1328 1334 1
e 1328 1335 1
e 1328 1336 1
e 1328 1337 1
e 1328 1338 1
e 1328 1339 1
e 1328 1340 1
e 1328 1341 1
e 1328 1342 1
e 1328 1343 1
e 1344 1345 1
e 1344 1346 1
e 1344 1347 1
e 1344 1348 1
e 1344 1349 1
e 1344 1350 1
e 1344 1351 1
e 1344 1352 1
e 1344 1353 1
e 1344 1354 1
e 1344 1355 1
e 1344 1356 1
e 1344 1357 1
e 1344 1358 1
e 1359 1360 1
e 1359 1361 1
e 1359 1362 1
e 1359 1363 1
e 1359 1364 1
e 1359 1365 1
e 1366 1368 1
e 1366 1367 1
e 1369 1370 1
e 1369 1371 1
e 1369 1372 1
e 1369 1373 1
e 1374 1376 1
e 1374 1377 1
e 1374 1378 1
e 1374 1379 1
e 1374 1380 1
e 1374 1381 1
e 1374 1382 1
e 1374 1383 1
e 1374 1384 1
e 1374 1385 1
e 1374 1386 1
e 1374 1387 1
e 1374 1388 1
e 1374 1389 1
e 1374 1390 1
e 1374 1375 1
e 1391 1392 1
e 1391 1393 1
e 1391 1394 1
e 1395 1396 1
e 1397 1398 1
e 1397 1399 1
e 1400 1401 1
e 1400 1402 1
e 1403 1404 1
e 1403 1405 1
e 1403 1406 1
e 1403 1407 1
e 1408 1409 1
e 1408 1410 1
e 1408 1411 1
e 1408 1412 1
e 1408 1413 1
e 1408 1414 1
e 1415 1416 1
e 1415 1417 1
e 1418 1419 1
e 1418 1420 1
e 1421 1422 1
e 1421 1423 1
e 1421 1424 1
e 1421 1425 1
e 1421 1426 1
e 1421 1427 1
e 1421 1428 1
e 1421 1429 1
e 1421 1430 1
e 1421 1431 1
e 1421 1432 1
e 1421 1433 1
e 1421 1434 1
e 1421 1435 1
e 1421 1436 1
e 1421 1437 1
e 1421 1438 1
e 1421 1439 1
e 1421 1440 1
e 1421 1441 1
e 1421 1442 1
e 1421 1443 1
e 1421 1444 1
e 1421 1445 1
e 1421 1446 1
e 1421 1447 1
e 1421 1448 1
e 1421 1449 1
e 1421 1450 1
e 1421 1451 1
e 1421 1452 1
e 1421 1453 1
e 1421 1454 1
e 1421 1455 1
e 1421 1456 1
e 1421 1457 1
e 1421 1458 1
e 1421 1459 1
e 1421 1460 1
e 1461 1464 1
e 1461 1462 1
e 1461 1463 1
e 1462 1464 1
e 1462 1465 1
e 1462 1466 1
e 1467 1472 1
e 1467 1473 1
e 1467 1474 1
e 1467 1475 1
e 1467 1476 1
e 1467 1468 1
e 1467 1469 1
e 1467 1470 1
e 1467 1471 1
e 1477 1480 1
e 1477 1481 1
e 1477 1478 1
e 1477 1479 1
e 1482 1483 1
e 1482 1484 1
e 1482 1485 1
e 1482 1486 1
e 1482 1487 1
e 1488 1489 1
e 1488 1490 1
e 1489 1490 1
e 1490 1491 1
e 1492 1493 1
e 1492 1494 1
e 1492 1495 1
e 1496 1497 1
e 1496 1498 1
e 1499 1504 1
e 1499 1505 1
e 1499 1506 1
e 1499 1500 1
e 1499 1501 1
e 1499 1502 1
e 1499 1503 1
e 1500 1504 1
e 1501 1505 1
e 1501 1507 1
e 1501 1508 1
e 1501 1509 1
e 1501 1510 1
e 1501 1511 1
e 1502 1512 1
e 1502 1513 1
e 1504 1514 1
e 1510 1515 1
e 1510 1516 1
e 1510 1517 1
e 1510 1518 1
e 1510 1519 1
e 1516 1652 1
e 1516 1653 1
e 1517 1654 1
e 1517 1518 1
e 1517 1519 1
e 1520 1521 1
e 1520 1522 1
e 1520 1523 1
e 1524 1525 1
e 1524 1526 1
e 1524 1527 1
e 1528 1536 1
e 1528 1537 1
e 1528 1538 1
e 1528 1529 1
e 1528 1530 1
e 1528 1531 1
e 1528 1532 1
e 1528 1533 1
e 1528 1534 1
e 1528 1535 1
e 1529 1531 1
e 1531 1536 1
e 1531 1539 1
e 1531 1540 1
e 1531 1541 1
e 1533 1542 1
e 1543 1544 1
e 1543 1545 1
e 1546 1547 1
e 1546 1548 1
e 1546 1549 1
e 1546 1550 1
e 1546 1551 1
e 1552 1553 1
e 1552 1554 1
e 1552 1555 1
e 1552 1556 1
e 1557 1560 1
e 1557 1561 1
e 1557 1558 1
e 1557 1559 1
e 1562 1568 1
e 1562 1569 1
e 1562 1563 1
e 1562 1564 1
e 1562 1565 1
e 1562 1566 1
e 1562 1567 1
e 1570 1571 1
e 1570 1572 1
e 1571 1573 1
e 1571 1574 1
e 1575 1576 1
e 1575 1577 1
e 1575 1578 1
e 1575 1579 1
e 1580 1584 1
e 1580 1585 1
e 1580 1581 1
e 1580 1582 1
e 1580 1583 1
e 1586 1587 1
e 1586 1588 1
e 1586 1589 1
e 1590 1592 1
e 1590 1591 1
e 1593 1594 1
e 1593 1595 1
e 1596 1600 1
e 1596 1601 1
e 1596 1602 1
e 1596 1603 1
e 1596 1604 1
e 1596 1605 1
e 1596 1606 1
e 1596 1607 1
e 1596 1597 1
e 1596 1598 1
e 1596 1599 1
e 1608 1609 1
e 1608 1610 1
e 1608 1611 1
e 1608 1612 1
e 1608 1613 1
e 1608 1614 1
e 1608 1615 1
e 1608 1616 1
e 1608 1617 1
e 1618 1619 1
e 1618 1620 1
e 1618 1621 1
e 1618 1622 1
e 1618 1623 1
e 1618 1624 1
e 1625 1626 1
e 1625 1627 1
e 1625 1628 1
e 1629 1630 1
e 1629 1631 1
e 1632 1633 1
e 1632 1634 1
e 1634 1635 1
e 1636 1637 1
e 1636 1638 1
e 1639 1640 1
e 1639 1641 1
e 1642 1643 1
e 1642 1644 1
e 1642 1645 1
e 1642 1646 1
e 1647 1648 1
e 1647 1649 1
e 1647 1650 1
e 1647 1651 1
e 1655 1656 1
e 1655 1657 1
e 1655 1658 1
e 1655 1659 1
e 1655 1660 1
e 1661 1662 1
e 1661 1663 1
e 1664 1665 1
e 1664 1666 1
e 1667 1668 1
e 1667 1669 1
e 1670 1672 1
e 1670 1673 1
e 1670 1674 1
e 1670 1675 1
e 1670 1671 1
e 1676 1677 1
e 1676 1678 1
e 1679 1680 1
e 1679 1681 1
e 1679 1682 1
e 1679 1683 1
e 1679 1684 1
e 1685 1686 1
e 1685 1687 1
e 1685 1688 1
e 1685 1689 1
e 1685 1690 1
e 1685 1691 1
e 1685 1692 1
e 1685 1693 1
e 1694 1696 1
e 1694 1695 1
e 1697 1698 1
e 1697 1699 1
e 1698 1700 1
e 1698 1701 1
e 1702 1703 1
e 1704 1705 1
e 1704 1706 1
e 1704 1707 1
e 1708 1709 1
e 1708 1710 1
e 1708 1711 1
e 1708 1712 1
e 1708 1713 1
e 1708 1714 1
e 1708 1715 1
e 1710 1716 1
e 1710 1717 1
e 1710 1718 1
e 1710 1719 1
e 1710 1720 1
e 1710 1721 1
e 1722 1723 1
e 1722 1724 1
e 1722 1725 1
e 1722 1726 1
e 1727 1728 1
e 1727 1729 1
e 1727 1730 1
e 1727 1731 1
e 1732 1733 1
e 1732 1734 1
e 1735 1736 1
e 1737 1738 1
e 1737 1739 1
e 1737 1740 1
e 1737 1741 1
e 1737 1742 1
e 1737 1743 1
e 1737 1744 1
e 1737 1745 1
e 1737 1746 1
e 1737 1747 1
e 1748 1749 1
e 1748 1750 1
e 1751 1752 1
e 1751 1753 1
e 1751 1754 1
e 1751 1755 1
e 1751 1756 1
e 1757 1760 1
e 1757 1761 1
e 1757 1758 1
e 1757 1759 1
e 1762 1763 1
e 1762 1764 1
e 1762 1765 1
e 1762 1766 1
e 1762 1767 1
e 1762 1768 1
e 1769 1770 1
e 1769 1771 1
e 1770 1771 1
e 1772 1776 1
e 1772 1773 1
e 1772 1774 1
e 1772 1775 1
e 1777 1778 1
e 1777 1779 1
e 1780 1781 1
e 1780 1782 1
e 1780 1783 1
e 1780 1784 1
e 1780 1785 1
e 1780 1786 1
e 1780 1787 1
e 1780 1788 1
e 1780 1789 1
e 1780 1790 1
e 1791 1792 1
e 1791 1793 1
e 1794 1795 1
e 1794 1796 1
e 1794 1797 1
e 1794 1798 1
e 1799 1800 1
e 1799 1801 1
e 1799 1802 1
e 1799 1803 1
e 1804 1805 1
e 1804 1806 1
e 1804 1807 1
e 1804 1808 1
e 1804 1809 1
e 1804 1810 1
e 1804 1811 1
e 1804 1812 1
e 1804 1813 1
e 1804 1814 1
e 1804 1815 1
e 1804 1816 1
e 1804 1817 1
e 1818 1819 1
e 1818 1820 1
e 1818 1821 1
e 1822 1824 1
e 1822 1823 1
e 1825 1826 1
e 1825 1827 1
e 1828 1829 1
e 1828 1830 1
e 1828 1831 1
e 1832 1833 1
e 1832 1834 1
e 1832 1835 1
e 1836 1837 1
e 1836 1838 1
e 1836 1839 1
e 1836 1840 1
e 1836 1841 1
e 1836 1842 1
e 1836 1843 1
e 1836 1844 1
e 1836 1845 1
e 1836 1846 1
e 1837 1847 1
e 1847 2465 1
e 1847 2466 1
e 2314 2333 1
e 2334 2336 1
e 2334 2337 1
e 2334 2338 1
e 2334 2335 1
e 2339 2340 1
e 2339 2341 1
e 2342 2344 1
e 2342 2345 1
e 2342 2346 1
e 2342 2347 1
e 2342 2343 1
e 2343 2344 1
e 2344 2345 1
e 2344 2348 1
e 2349 2350 1
e 2349 2351 1
e 2352 2353 1
e 2352 2354 1
e 2352 2355 1
e 2356 2357 1
e 2356 2358 1
e 2359 2368 1
e 2359 2369 1
e 2359 2370 1
e 2359 2371 1
e 2359 2372 1
e 2359 2373 1
e 2359 2374 1
e 2359 2375 1
e 2359 2360 1
e 2359 2361 1
e 2359 2362 1
e 2359 2363 1
e 2359 2364 1
e 2359 2365 1
e 2359 2366 1
e 2359 2367 1
e 2361 2376 1
e 2376 2584 1
e 2376 2586 1
e 2376 2585 1
e 2376 2583 1
e 2377 2378 1
e 2377 2379 1
e 2377 2380 1
e 2381 2382 1
e 2381 2383 1
e 2381 2384 1
e 2381 2385 1
e 2381 2386 1
e 2381 2387 1
e 2381 2388 1
e 2381 2389 1
e 2381 2390 1
e 2381 2391 1
e 2381 2392 1
e 2381 2393 1
e 2381 2394 1
e 2381 2395 1
e 2381 2396 1
e 2381 2397 1
e 2381 2398 1
e 2381 2399 1
e 2381 2400 1
e 2381 2401 1
e 2381 2402 1
e 2381 2403 1
e 2381 2404 1
e 2381 2405 1
e 2381 2406 1
e 2381 2407 1
e 2381 2408 1
e 2381 2409 1
e 2381 2410 1
e 2381 2411 1
e 2381 2412 1
e 2381 2413 1
e 2381 2414 1
e 2381 2415 1
e 2381 2416 1
e 2381 2417 1
e 2418 2419 1
e 2418 2420 1
e 2418 2421 1
e 2419 2420 1
e 2419 2421 1
e 2420 2421 1
e 2422 2424 1
e 2422 2425 1
e 2422 2423 1
e 2426 2427 1
e 2426 2428 1
e 2426 2429 1
e 2426 2430 1
e 2431 2432 1
e 2431 2433 1
e 2431 2434 1
e 2431 2435 1
e 2436 2437 1
e 2436 2438 1
e 2436 2439 1
e 2440 2441 1
e 2440 2442 1
e 2440 2443 1
e 2440 2444 1
e 2440 2445 1
e 2440 2446 1
e 2440 2447 1
e 2440 2448 1
e 2440 2449 1
e 2440 2450 1
e 2440 2451 1
e 2440 2452 1
e 2440 2453 1
e 2440 2454 1
e 2440 2455 1
e 2440 2456 1
e 2440 2457 1
e 2440 2458 1
e 2440 2459 1
e 2460 2464 1
e 2460 2461 1
e 2460 2462 1
e 2460 2463 1
e 2467 2468 1
e 2467 2469 1
e 2470 2472 1
e 2470 2473 1
e 2470 2471 1
e 2474 2475 1
e 2474 2476 1
e 2474 2477 1
e 2478 2480 1
e 2478 2479 1
e 2481 2482 1
e 2481 2483 1
e 2481 2484 1
e 2485 2486 1
e 2485 2487 1
e 2488 2489 1
e 2488 2490 1
e 2491 2492 1
e 2491 2493 1
e 2491 2494 1
e 2491 2495 1
e 2496 2497 1
e 2496 2498 1
e 2496 2499 1
e 2496 2500 1
e 2496 2501 1
e 2502 2504 1
e 2502 2505 1
e 2502 2503 1
e 2506 2507 1
e 2506 2508 1
e 2509 2512 1
e 2509 2510 1
e 2509 2511 1
e 2513 2514 1
e 2513 2515 1
e 2516 2517 1
e 2516 2518 1
e 2516 2519 1
e 2520 2521 1
e 2520 2522 1
e 2523 2524 1
e 2523 2525 1
e 2523 2526 1
e 2523 2527 1
e 2528 2529 1
e 2528 2530 1
e 2528 2531 1
e 2528 2532 1
e 2528 2533 1
e 2528 2534 1
e 2528 2535 1
e 2528 2536 1
e 2528 2537 1
e 2528 2538 1
e 2528 2539 1
e 2528 2540 1
e 2528 2541 1
e 2528 2542 1
e 2528 2543 1
e 2528 2544 1
e 2545 2546 1
e 2545 2547 1
e 2545 2548 1
e 2545 2549 1
e 2545 2550 1
e 2545 2551 1
e 2546 2552 1
e 2546 2547 1
e 2553 2554 1
e 2553 2555 1
e 2553 2556 1
e 2553 2557 1
e 2553 2558 1
e 2553 2559 1
e 2560 2561 1
e 2560 2562 1
e 2560 2563 1
e 2560 2564 1
e 2560 2565 1
e 2560 2566 1
e 2560 2567 1
e 2568 2569 1
e 2568 2570 1
e 2571 2576 1
e 2571 2572 1
e 2571 2573 1
e 2571 2574 1
e 2571 2575 1
e 2577 2578 1
e 2577 2579 1
e 2577 2580 1
e 2577 2581 1
e 2577 2582 1
e 2587 2588 1
e 2587 2589 1
e 2590 2592 1
e 2590 2593 1
e 2590 2594 1
e 2590 2595 1
e 2590 2596 1
e 2590 2597 1
e 2590 2598 1
e 2590 2599 1
e 2590 2600 1
e 2590 2601 1
e 2590 2602 1
e 2590 2591 1
e 2603 2604 1
e 2603 2605 1
e 2606 2608 1
e 2606 2607 1
e 2609 2610 1
e 2609 2611 1
e 2612 2613 1
e 2612 2614 1
e 2615 2624 1
e 2615 2625 1
e 2615 2616 1
e 2615 2617 1
e 2615 2618 1
e 2615 2619 1
e 2615 2620 1
e 2615 2621 1
e 2615 2622 1
e 2615 2623 1
